instances/knapsack/discrete_knapsack_uncertainty/knapsack_140_12.lp
\ Model knapsack_140_12
\ LP format - for model browsing. Use MPS format to capture full model detail.
\ Signature: 0x9977cb8fbdb63468
Minimize
  - 10 x[0] - 2 x[1] - 64 x[2] - 56 x[3] - 73 x[4] - 45 x[5] - 69 x[6]
   - 63 x[7] - 46 x[8] - 58 x[9] - 95 x[10] - 51 x[11] - 91 x[12]
   - 82 x[13] - 99 x[14] - 20 x[15] - 98 x[16] - 86 x[17] - 78 x[18]
   - 5 x[19] - 45 x[20] - 87 x[21] - 88 x[22] - 84 x[23] - 13 x[24]
   - 42 x[25] - 44 x[26] - 19 x[27] - 54 x[28] - 16 x[29] - 13 x[30]
   - 24 x[31] - 4 x[32] - 91 x[33] - 91 x[34] - 41 x[35] - 89 x[36]
   - 59 x[37] - 30 x[38] - 15 x[39] - 52 x[40] - 53 x[41] - 57 x[42]
   - 99 x[43] - 78 x[44] - 27 x[45] - 44 x[46] - 20 x[47] - 56 x[48]
   - x[49] - 63 x[50] - 18 x[51] - 47 x[52] - 41 x[53] - 8 x[54] - 18 x[55]
   - 42 x[56] - 20 x[57] - 36 x[58] - 87 x[59] - 68 x[60] - 90 x[61]
   - 37 x[62] - 49 x[63] - 2 x[64] - 53 x[65] - 25 x[66] - 29 x[67]
   - 40 x[68] - 49 x[69] - 53 x[70] - 47 x[71] - 37 x[72] - 9 x[73]
   - 26 x[74] - 10 x[75] - 58 x[76] - 97 x[77] - 64 x[78] - 43 x[79]
   - 7 x[80] - 26 x[81] - 65 x[82] - 18 x[83] - 41 x[84] - 28 x[85]
   - 66 x[86] - 67 x[87] - 64 x[88] - 98 x[89] - 74 x[90] - x[91]
   - 57 x[92] - 52 x[93] - 52 x[94] - 94 x[95] - 29 x[96] - 4 x[97]
   - 84 x[98] - 36 x[99] - 96 x[100] - 49 x[101] - 42 x[102] - 21 x[103]
   - 71 x[104] - 79 x[105] - 66 x[106] - 84 x[107] - 26 x[108] - 44 x[109]
   - 57 x[110] - 42 x[111] - 9 x[112] - 7 x[113] - 90 x[114] - 49 x[115]
   - 55 x[116] - 81 x[117] - 38 x[118] - 91 x[119] - 41 x[120] - 66 x[121]
   - 46 x[122] - 95 x[123] - 39 x[124] - 28 x[125] - 68 x[126] - 14 x[127]
   - 23 x[128] - 40 x[129] - 94 x[130] - 15 x[131] - 92 x[132] - 70 x[133]
   - 17 x[134] - 47 x[135] - 88 x[136] - 97 x[137] - 31 x[138] - x[139]
Subject To
 primal_upper: 93 x[0] + 6 x[1] + 56 x[2] + 37 x[3] + 94 x[4] + 63 x[5]
   + 19 x[6] + 45 x[7] + 87 x[8] + 4 x[9] + 81 x[10] + 65 x[11] + 70 x[12]
   + 6 x[13] + 98 x[14] + 14 x[15] + 91 x[16] + 50 x[17] + 31 x[18]
   + 16 x[19] + 35 x[20] + 57 x[21] + 86 x[22] + 56 x[23] + 10 x[24]
   + 86 x[25] + 60 x[26] + 81 x[27] + 67 x[28] + 41 x[29] + 35 x[30]
   + 53 x[31] + 85 x[32] + 55 x[33] + 34 x[34] + 63 x[35] + 46 x[36]
   + 22 x[37] + 14 x[38] + 80 x[39] + 61 x[40] + 39 x[41] + 52 x[42]
   + 15 x[43] + 93 x[44] + 28 x[45] + 99 x[46] + 27 x[47] + 85 x[48]
   + 30 x[49] + 100 x[50] + 86 x[51] + 83 x[52] + 34 x[53] + 34 x[54]
   + 81 x[55] + 43 x[56] + 72 x[57] + 42 x[58] + 96 x[59] + 50 x[60]
   + 84 x[61] + 85 x[62] + 32 x[63] + 9 x[64] + 94 x[65] + 26 x[66]
   + 64 x[67] + 78 x[68] + 39 x[69] + 27 x[70] + 91 x[71] + 52 x[72]
   + 5 x[73] + 17 x[74] + 22 x[75] + 72 x[76] + 85 x[77] + 66 x[78]
   + 64 x[79] + 71 x[80] + 71 x[81] + 56 x[82] + 19 x[83] + 67 x[84]
   + 51 x[85] + 21 x[86] + 62 x[87] + 96 x[88] + 81 x[89] + 14 x[90]
   + 66 x[91] + 2 x[92] + 89 x[93] + 50 x[94] + 91 x[95] + 75 x[96]
   + 90 x[97] + 74 x[98] + 66 x[99] + 11 x[100] + 98 x[101] + 24 x[102]
   + 58 x[103] + 23 x[104] + 12 x[105] + 37 x[106] + 8 x[107] + 48 x[108]
   + 43 x[109] + 72 x[110] + 33 x[111] + 15 x[112] + 99 x[113] + 59 x[114]
   + 64 x[115] + 85 x[116] + 3 x[117] + 75 x[118] + 94 x[119] + 25 x[120]
   + 46 x[121] + 77 x[122] + 24 x[123] + 11 x[124] + 76 x[125] + 69 x[126]
   + 41 x[127] + 12 x[128] + 53 x[129] + 55 x[130] + 71 x[131] + 56 x[132]
   + 14 x[133] + 62 x[134] + 84 x[135] + 95 x[136] + 28 x[137] + 83 x[138]
   + 78 x[139] + 9.3 r[0] + 0.6 r[1] + 5.6 r[2] + 3.7 r[3] + 9.4 r[4]
   + 6.3 r[5] + 1.9 r[6] + 4.5 r[7] + 8.7 r[8] + 0.4 r[9] + 8.1 r[10]
   + 6.5 r[11] + 7 r[12] + 0.6 r[13] + 9.8 r[14] + 1.4 r[15] + 9.1 r[16]
   + 5 r[17] + 3.1 r[18] + 1.6 r[19] + 3.5 r[20] + 5.7 r[21] + 8.6 r[22]
   + 5.6 r[23] + r[24] + 8.6 r[25] + 6 r[26] + 8.1 r[27] + 6.7 r[28]
   + 4.1 r[29] + 3.5 r[30] + 5.3 r[31] + 8.5 r[32] + 5.5 r[33] + 3.4 r[34]
   + 6.3 r[35] + 4.6 r[36] + 2.2 r[37] + 1.4 r[38] + 8 r[39] + 6.1 r[40]
   + 3.9 r[41] + 5.2 r[42] + 1.5 r[43] + 9.3 r[44] + 2.8 r[45] + 9.9 r[46]
   + 2.7 r[47] + 8.5 r[48] + 3 r[49] + 10 r[50] + 8.6 r[51] + 8.3 r[52]
   + 3.4 r[53] + 3.4 r[54] + 8.1 r[55] + 4.3 r[56] + 7.2 r[57] + 4.2 r[58]
   + 9.6 r[59] + 5 r[60] + 8.4 r[61] + 8.5 r[62] + 3.2 r[63] + 0.9 r[64]
   + 9.4 r[65] + 2.6 r[66] + 6.4 r[67] + 7.8 r[68] + 3.9 r[69] + 2.7 r[70]
   + 9.1 r[71] + 5.2 r[72] + 0.5 r[73] + 1.7 r[74] + 2.2 r[75] + 7.2 r[76]
   + 8.5 r[77] + 6.6 r[78] + 6.4 r[79] + 7.1 r[80] + 7.1 r[81] + 5.6 r[82]
   + 1.9 r[83] + 6.7 r[84] + 5.1 r[85] + 2.1 r[86] + 6.2 r[87] + 9.6 r[88]
   + 8.1 r[89] + 1.4 r[90] + 6.6 r[91] + 0.2 r[92] + 8.9 r[93] + 5 r[94]
   + 9.1 r[95] + 7.5 r[96] + 9 r[97] + 7.4 r[98] + 6.6 r[99] + 1.1 r[100]
   + 9.8 r[101] + 2.4 r[102] + 5.8 r[103] + 2.3 r[104] + 1.2 r[105]
   + 3.7 r[106] + 0.8 r[107] + 4.8 r[108] + 4.3 r[109] + 7.2 r[110]
   + 3.3 r[111] + 1.5 r[112] + 9.9 r[113] + 5.9 r[114] + 6.4 r[115]
   + 8.5 r[116] + 0.3 r[117] + 7.5 r[118] + 9.4 r[119] + 2.5 r[120]
   + 4.6 r[121] + 7.7 r[122] + 2.4 r[123] + 1.1 r[124] + 7.6 r[125]
   + 6.9 r[126] + 4.1 r[127] + 1.2 r[128] + 5.3 r[129] + 5.5 r[130]
   + 7.1 r[131] + 5.6 r[132] + 1.4 r[133] + 6.2 r[134] + 8.4 r[135]
   + 9.5 r[136] + 2.8 r[137] + 8.3 r[138] + 7.8 r[139] <= 722
 primal_lower: 0.5394855225565336 x[0] + 2.689842845829539 x[1]
   + 3.040564401879604 x[2] + 1.210691073537115 x[3]
   + 2.772084158287479 x[4] + 4.017264044411076 x[5]
   + 4.681230823255606 x[6] + 0.1974417076206545 x[7]
   + 0.3242836450771161 x[8] + 0.1636851852274152 x[9]
   + 0.435942972343047 x[10] + 0.4514809048006962 x[11]
   + 3.240974288482476 x[12] + 4.289676226724415 x[13]
   + 1.426870219429669 x[14] + 4.755746254354099 x[15]
   + 1.586503626075578 x[16] + 0.105470849695896 x[17]
   + 1.80495934946783 x[18] + 4.487141536972854 x[19]
   + 2.042196860374578 x[20] + 1.838235148109282 x[21]
   + 0.835263105690752 x[22] + 0.5342031298504973 x[23]
   + 3.787647256531617 x[24] + 1.926324997572509 x[25]
   + 0.4449389261586612 x[26] + 1.938301738156816 x[27]
   + 0.6372378519036018 x[28] + 1.142119137758885 x[29]
   + 3.882710853463749 x[30] + 1.435120335983853 x[31]
   + 4.191889341779257 x[32] + 1.525414875542769 x[33]
   + 0.5634849660111259 x[34] + 3.242017382381115 x[35]
   + 0.584615321238739 x[36] + 1.709430538357801 x[37]
   + 2.195722349526467 x[38] + 2.790201016045796 x[39]
   + 2.994503462542387 x[40] + 3.088225602904187 x[41]
   + 3.44177900559482 x[42] + 0.2530288444168439 x[43]
   + 3.764872234213345 x[44] + 2.637882966525824 x[45]
   + 4.243326024846507 x[46] + 4.045388324977778 x[47]
   + 2.55296842857914 x[48] + 2.584565869690699 x[49]
   + 1.304973261359801 x[50] + 0.9426337149745546 x[51]
   + 4.617164016865364 x[52] + 0.1567221704622846 x[53]
   + 2.023421452617191 x[54] + 2.962631368473098 x[55]
   + 2.957168185515619 x[56] + 3.656402703187683 x[57]
   + 4.781262871849852 x[58] + 2.515574410790603 x[59]
   + 3.591717962004371 x[60] + 3.606193396434107 x[61]
   + 4.520071227724551 x[62] + 2.224312099676588 x[63]
   + 0.4129661855448811 x[64] + 1.769854869890673 x[65]
   + 1.119534560816354 x[66] + 2.41648220533529 x[67]
   + 0.2203366204097921 x[68] + 3.176798182657418 x[69]
   + 2.508110375295169 x[70] + 1.744056861866308 x[71]
   + 2.551791908755781 x[72] + 2.735639541377077 x[73]
   + 2.065975433394053 x[74] + 2.735321431534544 x[75]
   + 0.6352836103365228 x[76] + 4.058769603145284 x[77]
   + 0.2136646351566734 x[78] + 3.804840315128292 x[79]
   + 4.019538235534772 x[80] + 4.671904026153655 x[81]
   + 4.845824961961845 x[82] + 4.139607749565725 x[83]
   + 1.617477529184671 x[84] + 2.566990138186361 x[85]
   + 2.735044864361821 x[86] + 3.270052391114591 x[87]
   + 3.750533480588524 x[88] + 0.0631887459476139 x[89]
   + 4.619656981981188 x[90] + 1.243521138612361 x[91]
   + 0.122969864076069 x[92] + 2.970627835832993 x[93]
   + 4.090170718248716 x[94] + 2.318179904768876 x[95]
   + 2.327065074399511 x[96] + 3.984687334288197 x[97]
   + 1.370815748345577 x[98] + 2.271275159761952 x[99]
   + 0.9062318578178467 x[100] + 0.7833139086116397 x[101]
   + 3.183256721791671 x[102] + 3.142377762775843 x[103]
   + 4.591665521841687 x[104] + 4.715492616856322 x[105]
   + 0.5630854690488432 x[106] + 3.733534853432765 x[107]
   + 3.286408510064065 x[108] + 2.99517505604637 x[109]
   + 4.72854332555838 x[110] + 3.628310794039317 x[111]
   + 1.779824444047298 x[112] + 1.808216247225946 x[113]
   + 3.298539318231612 x[114] + 0.5639541154972683 x[115]
   + 1.524810448404804 x[116] + 0.7638029113283547 x[117]
   + 3.978991112092332 x[118] + 2.888894469627913 x[119]
   + 3.439022913546936 x[120] + 3.2880645217197 x[121]
   + 2.628660663440551 x[122] + 0.4039115892166748 x[123]
   + 2.379297943679247 x[124] + 1.232367677247935 x[125]
   + 0.8161312230130732 x[126] + 2.487401215562969 x[127]
   + 2.951025830431965 x[128] + 0.2372021326746818 x[129]
   + 3.419024146368697 x[130] + 3.889578378424863 x[131]
   + 1.195733104989602 x[132] + 3.563683924320207 x[133]
   + 1.464446480717477 x[134] + 0.512489290253539 x[135]
   + 3.865538112046198 x[136] + 0.8784306903689582 x[137]
   + 0.3624721640592003 x[138] + 1.172661586997458 x[139] + 19 u[0]
   + 79 u[1] + 69 u[2] + 58 u[3] + 27 u[4] + 25 u[5] + 8 u[6] + 43 u[7]
   + 84 u[8] + 97 u[9] + 19 u[10] + 94 u[11] + 99 u[12] + 71 u[13]
   + 76 u[14] + 4 u[15] + 76 u[16] + 71 u[17] + 40 u[18] + 49 u[19]
   + 96 u[20] + 95 u[21] + 75 u[22] + 14 u[23] + 40 u[24] + 87 u[25]
   + 25 u[26] + 99 u[27] + 5 u[28] + 34 u[29] + 97 u[30] + 95 u[31]
   + 67 u[32] + 28 u[33] + 91 u[34] + 20 u[35] + 31 u[36] + 12 u[37]
   + 47 u[38] + 6 u[39] + 82 u[40] + 81 u[41] + 81 u[42] + 65 u[43]
   + 42 u[44] + 50 u[45] + 41 u[46] + 53 u[47] + 34 u[48] + 55 u[49]
   + 22 u[50] + 23 u[51] + 80 u[52] + 99 u[53] + 60 u[54] + 43 u[55]
   + 12 u[56] + 22 u[57] + 15 u[58] + 53 u[59] + 44 u[60] + 10 u[61]
   + 27 u[62] + 66 u[63] + 23 u[64] + 47 u[65] + 88 u[66] + 38 u[67]
   + 7 u[68] + 33 u[69] + 97 u[70] + 25 u[71] + 21 u[72] + 94 u[73]
   + 43 u[74] + 32 u[75] + 46 u[76] + 18 u[77] + 24 u[78] + 26 u[79]
   + 81 u[80] + 85 u[81] + 42 u[82] + 21 u[83] + 17 u[84] + 45 u[85]
   + 15 u[86] + 39 u[87] + 77 u[88] + 58 u[89] + 12 u[90] + 4 u[91]
   + 68 u[92] + 71 u[93] + 27 u[94] + 96 u[95] + 4 u[96] + 60 u[97]
   + 83 u[98] + 55 u[99] + 84 u[100] + 51 u[101] + 93 u[102] + 75 u[103]
   + 24 u[104] + 53 u[105] + 54 u[106] + 18 u[107] + 74 u[108] + 36 u[109]
   + 46 u[110] + 54 u[111] + 60 u[112] + 48 u[113] + 76 u[114] + 50 u[115]
   + 94 u[116] + 36 u[117] + 40 u[118] + 8 u[119] + 23 u[120] + 60 u[121]
   + 3 u[122] + 18 u[123] + 72 u[124] + 50 u[125] + 99 u[126] + 15 u[127]
   + 82 u[128] + 90 u[129] + 93 u[130] + 24 u[131] + 42 u[132] + 99 u[133]
   + 76 u[134] + 25 u[135] + 88 u[136] + 46 u[137] + 73 u[138] + 99 u[139]
   <= 65376
 mccormick1[0]: - u[0] + r[0] <= 0
 mccormick1[1]: - u[1] + r[1] <= 0
 mccormick1[2]: - u[2] + r[2] <= 0
 mccormick1[3]: - u[3] + r[3] <= 0
 mccormick1[4]: - u[4] + r[4] <= 0
 mccormick1[5]: - u[5] + r[5] <= 0
 mccormick1[6]: - u[6] + r[6] <= 0
 mccormick1[7]: - u[7] + r[7] <= 0
 mccormick1[8]: - u[8] + r[8] <= 0
 mccormick1[9]: - u[9] + r[9] <= 0
 mccormick1[10]: - u[10] + r[10] <= 0
 mccormick1[11]: - u[11] + r[11] <= 0
 mccormick1[12]: - u[12] + r[12] <= 0
 mccormick1[13]: - u[13] + r[13] <= 0
 mccormick1[14]: - u[14] + r[14] <= 0
 mccormick1[15]: - u[15] + r[15] <= 0
 mccormick1[16]: - u[16] + r[16] <= 0
 mccormick1[17]: - u[17] + r[17] <= 0
 mccormick1[18]: - u[18] + r[18] <= 0
 mccormick1[19]: - u[19] + r[19] <= 0
 mccormick1[20]: - u[20] + r[20] <= 0
 mccormick1[21]: - u[21] + r[21] <= 0
 mccormick1[22]: - u[22] + r[22] <= 0
 mccormick1[23]: - u[23] + r[23] <= 0
 mccormick1[24]: - u[24] + r[24] <= 0
 mccormick1[25]: - u[25] + r[25] <= 0
 mccormick1[26]: - u[26] + r[26] <= 0
 mccormick1[27]: - u[27] + r[27] <= 0
 mccormick1[28]: - u[28] + r[28] <= 0
 mccormick1[29]: - u[29] + r[29] <= 0
 mccormick1[30]: - u[30] + r[30] <= 0
 mccormick1[31]: - u[31] + r[31] <= 0
 mccormick1[32]: - u[32] + r[32] <= 0
 mccormick1[33]: - u[33] + r[33] <= 0
 mccormick1[34]: - u[34] + r[34] <= 0
 mccormick1[35]: - u[35] + r[35] <= 0
 mccormick1[36]: - u[36] + r[36] <= 0
 mccormick1[37]: - u[37] + r[37] <= 0
 mccormick1[38]: - u[38] + r[38] <= 0
 mccormick1[39]: - u[39] + r[39] <= 0
 mccormick1[40]: - u[40] + r[40] <= 0
 mccormick1[41]: - u[41] + r[41] <= 0
 mccormick1[42]: - u[42] + r[42] <= 0
 mccormick1[43]: - u[43] + r[43] <= 0
 mccormick1[44]: - u[44] + r[44] <= 0
 mccormick1[45]: - u[45] + r[45] <= 0
 mccormick1[46]: - u[46] + r[46] <= 0
 mccormick1[47]: - u[47] + r[47] <= 0
 mccormick1[48]: - u[48] + r[48] <= 0
 mccormick1[49]: - u[49] + r[49] <= 0
 mccormick1[50]: - u[50] + r[50] <= 0
 mccormick1[51]: - u[51] + r[51] <= 0
 mccormick1[52]: - u[52] + r[52] <= 0
 mccormick1[53]: - u[53] + r[53] <= 0
 mccormick1[54]: - u[54] + r[54] <= 0
 mccormick1[55]: - u[55] + r[55] <= 0
 mccormick1[56]: - u[56] + r[56] <= 0
 mccormick1[57]: - u[57] + r[57] <= 0
 mccormick1[58]: - u[58] + r[58] <= 0
 mccormick1[59]: - u[59] + r[59] <= 0
 mccormick1[60]: - u[60] + r[60] <= 0
 mccormick1[61]: - u[61] + r[61] <= 0
 mccormick1[62]: - u[62] + r[62] <= 0
 mccormick1[63]: - u[63] + r[63] <= 0
 mccormick1[64]: - u[64] + r[64] <= 0
 mccormick1[65]: - u[65] + r[65] <= 0
 mccormick1[66]: - u[66] + r[66] <= 0
 mccormick1[67]: - u[67] + r[67] <= 0
 mccormick1[68]: - u[68] + r[68] <= 0
 mccormick1[69]: - u[69] + r[69] <= 0
 mccormick1[70]: - u[70] + r[70] <= 0
 mccormick1[71]: - u[71] + r[71] <= 0
 mccormick1[72]: - u[72] + r[72] <= 0
 mccormick1[73]: - u[73] + r[73] <= 0
 mccormick1[74]: - u[74] + r[74] <= 0
 mccormick1[75]: - u[75] + r[75] <= 0
 mccormick1[76]: - u[76] + r[76] <= 0
 mccormick1[77]: - u[77] + r[77] <= 0
 mccormick1[78]: - u[78] + r[78] <= 0
 mccormick1[79]: - u[79] + r[79] <= 0
 mccormick1[80]: - u[80] + r[80] <= 0
 mccormick1[81]: - u[81] + r[81] <= 0
 mccormick1[82]: - u[82] + r[82] <= 0
 mccormick1[83]: - u[83] + r[83] <= 0
 mccormick1[84]: - u[84] + r[84] <= 0
 mccormick1[85]: - u[85] + r[85] <= 0
 mccormick1[86]: - u[86] + r[86] <= 0
 mccormick1[87]: - u[87] + r[87] <= 0
 mccormick1[88]: - u[88] + r[88] <= 0
 mccormick1[89]: - u[89] + r[89] <= 0
 mccormick1[90]: - u[90] + r[90] <= 0
 mccormick1[91]: - u[91] + r[91] <= 0
 mccormick1[92]: - u[92] + r[92] <= 0
 mccormick1[93]: - u[93] + r[93] <= 0
 mccormick1[94]: - u[94] + r[94] <= 0
 mccormick1[95]: - u[95] + r[95] <= 0
 mccormick1[96]: - u[96] + r[96] <= 0
 mccormick1[97]: - u[97] + r[97] <= 0
 mccormick1[98]: - u[98] + r[98] <= 0
 mccormick1[99]: - u[99] + r[99] <= 0
 mccormick1[100]: - u[100] + r[100] <= 0
 mccormick1[101]: - u[101] + r[101] <= 0
 mccormick1[102]: - u[102] + r[102] <= 0
 mccormick1[103]: - u[103] + r[103] <= 0
 mccormick1[104]: - u[104] + r[104] <= 0
 mccormick1[105]: - u[105] + r[105] <= 0
 mccormick1[106]: - u[106] + r[106] <= 0
 mccormick1[107]: - u[107] + r[107] <= 0
 mccormick1[108]: - u[108] + r[108] <= 0
 mccormick1[109]: - u[109] + r[109] <= 0
 mccormick1[110]: - u[110] + r[110] <= 0
 mccormick1[111]: - u[111] + r[111] <= 0
 mccormick1[112]: - u[112] + r[112] <= 0
 mccormick1[113]: - u[113] + r[113] <= 0
 mccormick1[114]: - u[114] + r[114] <= 0
 mccormick1[115]: - u[115] + r[115] <= 0
 mccormick1[116]: - u[116] + r[116] <= 0
 mccormick1[117]: - u[117] + r[117] <= 0
 mccormick1[118]: - u[118] + r[118] <= 0
 mccormick1[119]: - u[119] + r[119] <= 0
 mccormick1[120]: - u[120] + r[120] <= 0
 mccormick1[121]: - u[121] + r[121] <= 0
 mccormick1[122]: - u[122] + r[122] <= 0
 mccormick1[123]: - u[123] + r[123] <= 0
 mccormick1[124]: - u[124] + r[124] <= 0
 mccormick1[125]: - u[125] + r[125] <= 0
 mccormick1[126]: - u[126] + r[126] <= 0
 mccormick1[127]: - u[127] + r[127] <= 0
 mccormick1[128]: - u[128] + r[128] <= 0
 mccormick1[129]: - u[129] + r[129] <= 0
 mccormick1[130]: - u[130] + r[130] <= 0
 mccormick1[131]: - u[131] + r[131] <= 0
 mccormick1[132]: - u[132] + r[132] <= 0
 mccormick1[133]: - u[133] + r[133] <= 0
 mccormick1[134]: - u[134] + r[134] <= 0
 mccormick1[135]: - u[135] + r[135] <= 0
 mccormick1[136]: - u[136] + r[136] <= 0
 mccormick1[137]: - u[137] + r[137] <= 0
 mccormick1[138]: - u[138] + r[138] <= 0
 mccormick1[139]: - u[139] + r[139] <= 0
 mccormick2[0]: - x[0] + r[0] <= 0
 mccormick2[1]: - x[1] + r[1] <= 0
 mccormick2[2]: - x[2] + r[2] <= 0
 mccormick2[3]: - x[3] + r[3] <= 0
 mccormick2[4]: - x[4] + r[4] <= 0
 mccormick2[5]: - x[5] + r[5] <= 0
 mccormick2[6]: - x[6] + r[6] <= 0
 mccormick2[7]: - x[7] + r[7] <= 0
 mccormick2[8]: - x[8] + r[8] <= 0
 mccormick2[9]: - x[9] + r[9] <= 0
 mccormick2[10]: - x[10] + r[10] <= 0
 mccormick2[11]: - x[11] + r[11] <= 0
 mccormick2[12]: - x[12] + r[12] <= 0
 mccormick2[13]: - x[13] + r[13] <= 0
 mccormick2[14]: - x[14] + r[14] <= 0
 mccormick2[15]: - x[15] + r[15] <= 0
 mccormick2[16]: - x[16] + r[16] <= 0
 mccormick2[17]: - x[17] + r[17] <= 0
 mccormick2[18]: - x[18] + r[18] <= 0
 mccormick2[19]: - x[19] + r[19] <= 0
 mccormick2[20]: - x[20] + r[20] <= 0
 mccormick2[21]: - x[21] + r[21] <= 0
 mccormick2[22]: - x[22] + r[22] <= 0
 mccormick2[23]: - x[23] + r[23] <= 0
 mccormick2[24]: - x[24] + r[24] <= 0
 mccormick2[25]: - x[25] + r[25] <= 0
 mccormick2[26]: - x[26] + r[26] <= 0
 mccormick2[27]: - x[27] + r[27] <= 0
 mccormick2[28]: - x[28] + r[28] <= 0
 mccormick2[29]: - x[29] + r[29] <= 0
 mccormick2[30]: - x[30] + r[30] <= 0
 mccormick2[31]: - x[31] + r[31] <= 0
 mccormick2[32]: - x[32] + r[32] <= 0
 mccormick2[33]: - x[33] + r[33] <= 0
 mccormick2[34]: - x[34] + r[34] <= 0
 mccormick2[35]: - x[35] + r[35] <= 0
 mccormick2[36]: - x[36] + r[36] <= 0
 mccormick2[37]: - x[37] + r[37] <= 0
 mccormick2[38]: - x[38] + r[38] <= 0
 mccormick2[39]: - x[39] + r[39] <= 0
 mccormick2[40]: - x[40] + r[40] <= 0
 mccormick2[41]: - x[41] + r[41] <= 0
 mccormick2[42]: - x[42] + r[42] <= 0
 mccormick2[43]: - x[43] + r[43] <= 0
 mccormick2[44]: - x[44] + r[44] <= 0
 mccormick2[45]: - x[45] + r[45] <= 0
 mccormick2[46]: - x[46] + r[46] <= 0
 mccormick2[47]: - x[47] + r[47] <= 0
 mccormick2[48]: - x[48] + r[48] <= 0
 mccormick2[49]: - x[49] + r[49] <= 0
 mccormick2[50]: - x[50] + r[50] <= 0
 mccormick2[51]: - x[51] + r[51] <= 0
 mccormick2[52]: - x[52] + r[52] <= 0
 mccormick2[53]: - x[53] + r[53] <= 0
 mccormick2[54]: - x[54] + r[54] <= 0
 mccormick2[55]: - x[55] + r[55] <= 0
 mccormick2[56]: - x[56] + r[56] <= 0
 mccormick2[57]: - x[57] + r[57] <= 0
 mccormick2[58]: - x[58] + r[58] <= 0
 mccormick2[59]: - x[59] + r[59] <= 0
 mccormick2[60]: - x[60] + r[60] <= 0
 mccormick2[61]: - x[61] + r[61] <= 0
 mccormick2[62]: - x[62] + r[62] <= 0
 mccormick2[63]: - x[63] + r[63] <= 0
 mccormick2[64]: - x[64] + r[64] <= 0
 mccormick2[65]: - x[65] + r[65] <= 0
 mccormick2[66]: - x[66] + r[66] <= 0
 mccormick2[67]: - x[67] + r[67] <= 0
 mccormick2[68]: - x[68] + r[68] <= 0
 mccormick2[69]: - x[69] + r[69] <= 0
 mccormick2[70]: - x[70] + r[70] <= 0
 mccormick2[71]: - x[71] + r[71] <= 0
 mccormick2[72]: - x[72] + r[72] <= 0
 mccormick2[73]: - x[73] + r[73] <= 0
 mccormick2[74]: - x[74] + r[74] <= 0
 mccormick2[75]: - x[75] + r[75] <= 0
 mccormick2[76]: - x[76] + r[76] <= 0
 mccormick2[77]: - x[77] + r[77] <= 0
 mccormick2[78]: - x[78] + r[78] <= 0
 mccormick2[79]: - x[79] + r[79] <= 0
 mccormick2[80]: - x[80] + r[80] <= 0
 mccormick2[81]: - x[81] + r[81] <= 0
 mccormick2[82]: - x[82] + r[82] <= 0
 mccormick2[83]: - x[83] + r[83] <= 0
 mccormick2[84]: - x[84] + r[84] <= 0
 mccormick2[85]: - x[85] + r[85] <= 0
 mccormick2[86]: - x[86] + r[86] <= 0
 mccormick2[87]: - x[87] + r[87] <= 0
 mccormick2[88]: - x[88] + r[88] <= 0
 mccormick2[89]: - x[89] + r[89] <= 0
 mccormick2[90]: - x[90] + r[90] <= 0
 mccormick2[91]: - x[91] + r[91] <= 0
 mccormick2[92]: - x[92] + r[92] <= 0
 mccormick2[93]: - x[93] + r[93] <= 0
 mccormick2[94]: - x[94] + r[94] <= 0
 mccormick2[95]: - x[95] + r[95] <= 0
 mccormick2[96]: - x[96] + r[96] <= 0
 mccormick2[97]: - x[97] + r[97] <= 0
 mccormick2[98]: - x[98] + r[98] <= 0
 mccormick2[99]: - x[99] + r[99] <= 0
 mccormick2[100]: - x[100] + r[100] <= 0
 mccormick2[101]: - x[101] + r[101] <= 0
 mccormick2[102]: - x[102] + r[102] <= 0
 mccormick2[103]: - x[103] + r[103] <= 0
 mccormick2[104]: - x[104] + r[104] <= 0
 mccormick2[105]: - x[105] + r[105] <= 0
 mccormick2[106]: - x[106] + r[106] <= 0
 mccormick2[107]: - x[107] + r[107] <= 0
 mccormick2[108]: - x[108] + r[108] <= 0
 mccormick2[109]: - x[109] + r[109] <= 0
 mccormick2[110]: - x[110] + r[110] <= 0
 mccormick2[111]: - x[111] + r[111] <= 0
 mccormick2[112]: - x[112] + r[112] <= 0
 mccormick2[113]: - x[113] + r[113] <= 0
 mccormick2[114]: - x[114] + r[114] <= 0
 mccormick2[115]: - x[115] + r[115] <= 0
 mccormick2[116]: - x[116] + r[116] <= 0
 mccormick2[117]: - x[117] + r[117] <= 0
 mccormick2[118]: - x[118] + r[118] <= 0
 mccormick2[119]: - x[119] + r[119] <= 0
 mccormick2[120]: - x[120] + r[120] <= 0
 mccormick2[121]: - x[121] + r[121] <= 0
 mccormick2[122]: - x[122] + r[122] <= 0
 mccormick2[123]: - x[123] + r[123] <= 0
 mccormick2[124]: - x[124] + r[124] <= 0
 mccormick2[125]: - x[125] + r[125] <= 0
 mccormick2[126]: - x[126] + r[126] <= 0
 mccormick2[127]: - x[127] + r[127] <= 0
 mccormick2[128]: - x[128] + r[128] <= 0
 mccormick2[129]: - x[129] + r[129] <= 0
 mccormick2[130]: - x[130] + r[130] <= 0
 mccormick2[131]: - x[131] + r[131] <= 0
 mccormick2[132]: - x[132] + r[132] <= 0
 mccormick2[133]: - x[133] + r[133] <= 0
 mccormick2[134]: - x[134] + r[134] <= 0
 mccormick2[135]: - x[135] + r[135] <= 0
 mccormick2[136]: - x[136] + r[136] <= 0
 mccormick2[137]: - x[137] + r[137] <= 0
 mccormick2[138]: - x[138] + r[138] <= 0
 mccormick2[139]: - x[139] + r[139] <= 0
 mccormick3[0]: x[0] + u[0] - r[0] <= 1
 mccormick3[1]: x[1] + u[1] - r[1] <= 1
 mccormick3[2]: x[2] + u[2] - r[2] <= 1
 mccormick3[3]: x[3] + u[3] - r[3] <= 1
 mccormick3[4]: x[4] + u[4] - r[4] <= 1
 mccormick3[5]: x[5] + u[5] - r[5] <= 1
 mccormick3[6]: x[6] + u[6] - r[6] <= 1
 mccormick3[7]: x[7] + u[7] - r[7] <= 1
 mccormick3[8]: x[8] + u[8] - r[8] <= 1
 mccormick3[9]: x[9] + u[9] - r[9] <= 1
 mccormick3[10]: x[10] + u[10] - r[10] <= 1
 mccormick3[11]: x[11] + u[11] - r[11] <= 1
 mccormick3[12]: x[12] + u[12] - r[12] <= 1
 mccormick3[13]: x[13] + u[13] - r[13] <= 1
 mccormick3[14]: x[14] + u[14] - r[14] <= 1
 mccormick3[15]: x[15] + u[15] - r[15] <= 1
 mccormick3[16]: x[16] + u[16] - r[16] <= 1
 mccormick3[17]: x[17] + u[17] - r[17] <= 1
 mccormick3[18]: x[18] + u[18] - r[18] <= 1
 mccormick3[19]: x[19] + u[19] - r[19] <= 1
 mccormick3[20]: x[20] + u[20] - r[20] <= 1
 mccormick3[21]: x[21] + u[21] - r[21] <= 1
 mccormick3[22]: x[22] + u[22] - r[22] <= 1
 mccormick3[23]: x[23] + u[23] - r[23] <= 1
 mccormick3[24]: x[24] + u[24] - r[24] <= 1
 mccormick3[25]: x[25] + u[25] - r[25] <= 1
 mccormick3[26]: x[26] + u[26] - r[26] <= 1
 mccormick3[27]: x[27] + u[27] - r[27] <= 1
 mccormick3[28]: x[28] + u[28] - r[28] <= 1
 mccormick3[29]: x[29] + u[29] - r[29] <= 1
 mccormick3[30]: x[30] + u[30] - r[30] <= 1
 mccormick3[31]: x[31] + u[31] - r[31] <= 1
 mccormick3[32]: x[32] + u[32] - r[32] <= 1
 mccormick3[33]: x[33] + u[33] - r[33] <= 1
 mccormick3[34]: x[34] + u[34] - r[34] <= 1
 mccormick3[35]: x[35] + u[35] - r[35] <= 1
 mccormick3[36]: x[36] + u[36] - r[36] <= 1
 mccormick3[37]: x[37] + u[37] - r[37] <= 1
 mccormick3[38]: x[38] + u[38] - r[38] <= 1
 mccormick3[39]: x[39] + u[39] - r[39] <= 1
 mccormick3[40]: x[40] + u[40] - r[40] <= 1
 mccormick3[41]: x[41] + u[41] - r[41] <= 1
 mccormick3[42]: x[42] + u[42] - r[42] <= 1
 mccormick3[43]: x[43] + u[43] - r[43] <= 1
 mccormick3[44]: x[44] + u[44] - r[44] <= 1
 mccormick3[45]: x[45] + u[45] - r[45] <= 1
 mccormick3[46]: x[46] + u[46] - r[46] <= 1
 mccormick3[47]: x[47] + u[47] - r[47] <= 1
 mccormick3[48]: x[48] + u[48] - r[48] <= 1
 mccormick3[49]: x[49] + u[49] - r[49] <= 1
 mccormick3[50]: x[50] + u[50] - r[50] <= 1
 mccormick3[51]: x[51] + u[51] - r[51] <= 1
 mccormick3[52]: x[52] + u[52] - r[52] <= 1
 mccormick3[53]: x[53] + u[53] - r[53] <= 1
 mccormick3[54]: x[54] + u[54] - r[54] <= 1
 mccormick3[55]: x[55] + u[55] - r[55] <= 1
 mccormick3[56]: x[56] + u[56] - r[56] <= 1
 mccormick3[57]: x[57] + u[57] - r[57] <= 1
 mccormick3[58]: x[58] + u[58] - r[58] <= 1
 mccormick3[59]: x[59] + u[59] - r[59] <= 1
 mccormick3[60]: x[60] + u[60] - r[60] <= 1
 mccormick3[61]: x[61] + u[61] - r[61] <= 1
 mccormick3[62]: x[62] + u[62] - r[62] <= 1
 mccormick3[63]: x[63] + u[63] - r[63] <= 1
 mccormick3[64]: x[64] + u[64] - r[64] <= 1
 mccormick3[65]: x[65] + u[65] - r[65] <= 1
 mccormick3[66]: x[66] + u[66] - r[66] <= 1
 mccormick3[67]: x[67] + u[67] - r[67] <= 1
 mccormick3[68]: x[68] + u[68] - r[68] <= 1
 mccormick3[69]: x[69] + u[69] - r[69] <= 1
 mccormick3[70]: x[70] + u[70] - r[70] <= 1
 mccormick3[71]: x[71] + u[71] - r[71] <= 1
 mccormick3[72]: x[72] + u[72] - r[72] <= 1
 mccormick3[73]: x[73] + u[73] - r[73] <= 1
 mccormick3[74]: x[74] + u[74] - r[74] <= 1
 mccormick3[75]: x[75] + u[75] - r[75] <= 1
 mccormick3[76]: x[76] + u[76] - r[76] <= 1
 mccormick3[77]: x[77] + u[77] - r[77] <= 1
 mccormick3[78]: x[78] + u[78] - r[78] <= 1
 mccormick3[79]: x[79] + u[79] - r[79] <= 1
 mccormick3[80]: x[80] + u[80] - r[80] <= 1
 mccormick3[81]: x[81] + u[81] - r[81] <= 1
 mccormick3[82]: x[82] + u[82] - r[82] <= 1
 mccormick3[83]: x[83] + u[83] - r[83] <= 1
 mccormick3[84]: x[84] + u[84] - r[84] <= 1
 mccormick3[85]: x[85] + u[85] - r[85] <= 1
 mccormick3[86]: x[86] + u[86] - r[86] <= 1
 mccormick3[87]: x[87] + u[87] - r[87] <= 1
 mccormick3[88]: x[88] + u[88] - r[88] <= 1
 mccormick3[89]: x[89] + u[89] - r[89] <= 1
 mccormick3[90]: x[90] + u[90] - r[90] <= 1
 mccormick3[91]: x[91] + u[91] - r[91] <= 1
 mccormick3[92]: x[92] + u[92] - r[92] <= 1
 mccormick3[93]: x[93] + u[93] - r[93] <= 1
 mccormick3[94]: x[94] + u[94] - r[94] <= 1
 mccormick3[95]: x[95] + u[95] - r[95] <= 1
 mccormick3[96]: x[96] + u[96] - r[96] <= 1
 mccormick3[97]: x[97] + u[97] - r[97] <= 1
 mccormick3[98]: x[98] + u[98] - r[98] <= 1
 mccormick3[99]: x[99] + u[99] - r[99] <= 1
 mccormick3[100]: x[100] + u[100] - r[100] <= 1
 mccormick3[101]: x[101] + u[101] - r[101] <= 1
 mccormick3[102]: x[102] + u[102] - r[102] <= 1
 mccormick3[103]: x[103] + u[103] - r[103] <= 1
 mccormick3[104]: x[104] + u[104] - r[104] <= 1
 mccormick3[105]: x[105] + u[105] - r[105] <= 1
 mccormick3[106]: x[106] + u[106] - r[106] <= 1
 mccormick3[107]: x[107] + u[107] - r[107] <= 1
 mccormick3[108]: x[108] + u[108] - r[108] <= 1
 mccormick3[109]: x[109] + u[109] - r[109] <= 1
 mccormick3[110]: x[110] + u[110] - r[110] <= 1
 mccormick3[111]: x[111] + u[111] - r[111] <= 1
 mccormick3[112]: x[112] + u[112] - r[112] <= 1
 mccormick3[113]: x[113] + u[113] - r[113] <= 1
 mccormick3[114]: x[114] + u[114] - r[114] <= 1
 mccormick3[115]: x[115] + u[115] - r[115] <= 1
 mccormick3[116]: x[116] + u[116] - r[116] <= 1
 mccormick3[117]: x[117] + u[117] - r[117] <= 1
 mccormick3[118]: x[118] + u[118] - r[118] <= 1
 mccormick3[119]: x[119] + u[119] - r[119] <= 1
 mccormick3[120]: x[120] + u[120] - r[120] <= 1
 mccormick3[121]: x[121] + u[121] - r[121] <= 1
 mccormick3[122]: x[122] + u[122] - r[122] <= 1
 mccormick3[123]: x[123] + u[123] - r[123] <= 1
 mccormick3[124]: x[124] + u[124] - r[124] <= 1
 mccormick3[125]: x[125] + u[125] - r[125] <= 1
 mccormick3[126]: x[126] + u[126] - r[126] <= 1
 mccormick3[127]: x[127] + u[127] - r[127] <= 1
 mccormick3[128]: x[128] + u[128] - r[128] <= 1
 mccormick3[129]: x[129] + u[129] - r[129] <= 1
 mccormick3[130]: x[130] + u[130] - r[130] <= 1
 mccormick3[131]: x[131] + u[131] - r[131] <= 1
 mccormick3[132]: x[132] + u[132] - r[132] <= 1
 mccormick3[133]: x[133] + u[133] - r[133] <= 1
 mccormick3[134]: x[134] + u[134] - r[134] <= 1
 mccormick3[135]: x[135] + u[135] - r[135] <= 1
 mccormick3[136]: x[136] + u[136] - r[136] <= 1
 mccormick3[137]: x[137] + u[137] - r[137] <= 1
 mccormick3[138]: x[138] + u[138] - r[138] <= 1
 mccormick3[139]: x[139] + u[139] - r[139] <= 1
Bounds
Binaries
 x[0] x[1] x[2] x[3] x[4] x[5] x[6] x[7] x[8] x[9] x[10] x[11] x[12] x[13]
 x[14] x[15] x[16] x[17] x[18] x[19] x[20] x[21] x[22] x[23] x[24] x[25]
 x[26] x[27] x[28] x[29] x[30] x[31] x[32] x[33] x[34] x[35] x[36] x[37]
 x[38] x[39] x[40] x[41] x[42] x[43] x[44] x[45] x[46] x[47] x[48] x[49]
 x[50] x[51] x[52] x[53] x[54] x[55] x[56] x[57] x[58] x[59] x[60] x[61]
 x[62] x[63] x[64] x[65] x[66] x[67] x[68] x[69] x[70] x[71] x[72] x[73]
 x[74] x[75] x[76] x[77] x[78] x[79] x[80] x[81] x[82] x[83] x[84] x[85]
 x[86] x[87] x[88] x[89] x[90] x[91] x[92] x[93] x[94] x[95] x[96] x[97]
 x[98] x[99] x[100] x[101] x[102] x[103] x[104] x[105] x[106] x[107] x[108]
 x[109] x[110] x[111] x[112] x[113] x[114] x[115] x[116] x[117] x[118]
 x[119] x[120] x[121] x[122] x[123] x[124] x[125] x[126] x[127] x[128]
 x[129] x[130] x[131] x[132] x[133] x[134] x[135] x[136] x[137] x[138]
 x[139] u[0] u[1] u[2] u[3] u[4] u[5] u[6] u[7] u[8] u[9] u[10] u[11] u[12]
 u[13] u[14] u[15] u[16] u[17] u[18] u[19] u[20] u[21] u[22] u[23] u[24]
 u[25] u[26] u[27] u[28] u[29] u[30] u[31] u[32] u[33] u[34] u[35] u[36]
 u[37] u[38] u[39] u[40] u[41] u[42] u[43] u[44] u[45] u[46] u[47] u[48]
 u[49] u[50] u[51] u[52] u[53] u[54] u[55] u[56] u[57] u[58] u[59] u[60]
 u[61] u[62] u[63] u[64] u[65] u[66] u[67] u[68] u[69] u[70] u[71] u[72]
 u[73] u[74] u[75] u[76] u[77] u[78] u[79] u[80] u[81] u[82] u[83] u[84]
 u[85] u[86] u[87] u[88] u[89] u[90] u[91] u[92] u[93] u[94] u[95] u[96]
 u[97] u[98] u[99] u[100] u[101] u[102] u[103] u[104] u[105] u[106] u[107]
 u[108] u[109] u[110] u[111] u[112] u[113] u[114] u[115] u[116] u[117]
 u[118] u[119] u[120] u[121] u[122] u[123] u[124] u[125] u[126] u[127]
 u[128] u[129] u[130] u[131] u[132] u[133] u[134] u[135] u[136] u[137]
 u[138] u[139] r[0] r[1] r[2] r[3] r[4] r[5] r[6] r[7] r[8] r[9] r[10]
 r[11] r[12] r[13] r[14] r[15] r[16] r[17] r[18] r[19] r[20] r[21] r[22]
 r[23] r[24] r[25] r[26] r[27] r[28] r[29] r[30] r[31] r[32] r[33] r[34]
 r[35] r[36] r[37] r[38] r[39] r[40] r[41] r[42] r[43] r[44] r[45] r[46]
 r[47] r[48] r[49] r[50] r[51] r[52] r[53] r[54] r[55] r[56] r[57] r[58]
 r[59] r[60] r[61] r[62] r[63] r[64] r[65] r[66] r[67] r[68] r[69] r[70]
 r[71] r[72] r[73] r[74] r[75] r[76] r[77] r[78] r[79] r[80] r[81] r[82]
 r[83] r[84] r[85] r[86] r[87] r[88] r[89] r[90] r[91] r[92] r[93] r[94]
 r[95] r[96] r[97] r[98] r[99] r[100] r[101] r[102] r[103] r[104] r[105]
 r[106] r[107] r[108] r[109] r[110] r[111] r[112] r[113] r[114] r[115]
 r[116] r[117] r[118] r[119] r[120] r[121] r[122] r[123] r[124] r[125]
 r[126] r[127] r[128] r[129] r[130] r[131] r[132] r[133] r[134] r[135]
 r[136] r[137] r[138] r[139]
End
