instances/knapsack/discrete/knapsack_140_12.kp
58153
140
722

93 9.3 10
6 0.6 2
56 5.6 64
37 3.7 56
94 9.4 73
63 6.3 45
19 1.9 69
45 4.5 63
87 8.7 46
4 0.4 58
81 8.1 95
65 6.5 51
70 7.0 91
6 0.6 82
98 9.8 99
14 1.4 20
91 9.1 98
50 5.0 86
31 3.1 78
16 1.6 5
35 3.5 45
57 5.7 87
86 8.6 88
56 5.6 84
10 1.0 13
86 8.6 42
60 6.0 44
81 8.1 19
67 6.7 54
41 4.1 16
35 3.5 13
53 5.3 24
85 8.5 4
55 5.5 91
34 3.4 91
63 6.3 41
46 4.6 89
22 2.2 59
14 1.4 30
80 8.0 15
61 6.1 52
39 3.9 53
52 5.2 57
15 1.5 99
93 9.3 78
28 2.8 27
99 9.9 44
27 2.7 20
85 8.5 56
30 3.0 1
100 10.0 63
86 8.6 18
83 8.3 47
34 3.4 41
34 3.4 8
81 8.1 18
43 4.3 42
72 7.2 20
42 4.2 36
96 9.6 87
50 5.0 68
84 8.4 90
85 8.5 37
32 3.2 49
9 0.9 2
94 9.4 53
26 2.6 25
64 6.4 29
78 7.8 40
39 3.9 49
27 2.7 53
91 9.1 47
52 5.2 37
5 0.5 9
17 1.7 26
22 2.2 10
72 7.2 58
85 8.5 97
66 6.6 64
64 6.4 43
71 7.1 7
71 7.1 26
56 5.6 65
19 1.9 18
67 6.7 41
51 5.1 28
21 2.1 66
62 6.2 67
96 9.6 64
81 8.1 98
14 1.4 74
66 6.6 1
2 0.2 57
89 8.9 52
50 5.0 52
91 9.1 94
75 7.5 29
90 9.0 4
74 7.4 84
66 6.6 36
11 1.1 96
98 9.8 49
24 2.4 42
58 5.8 21
23 2.3 71
12 1.2 79
37 3.7 66
8 0.8 84
48 4.8 26
43 4.3 44
72 7.2 57
33 3.3 42
15 1.5 9
99 9.9 7
59 5.9 90
64 6.4 49
85 8.5 55
3 0.3 81
75 7.5 38
94 9.4 91
25 2.5 41
46 4.6 66
77 7.7 46
24 2.4 95
11 1.1 39
76 7.6 28
69 6.9 68
41 4.1 14
12 1.2 23
53 5.3 40
55 5.5 94
71 7.1 15
56 5.6 92
14 1.4 70
62 6.2 17
84 8.4 47
95 9.5 88
28 2.8 97
83 8.3 31
78 7.8 1

65376
686

[0.5394855225565336 2.6898428458295394 3.040564401879604 1.2106910735371152 2.7720841582874787 4.017264044411076 4.681230823255606 0.19744170762065447 0.3242836450771161 0.16368518522741515 0.435942972343047 0.45148090480069625 3.240974288482476 4.289676226724415 1.4268702194296694 4.755746254354099 1.5865036260755776 0.10547084969589604 1.8049593494678298 4.487141536972854 2.042196860374578 1.8382351481092825 0.835263105690752 0.5342031298504973 3.787647256531617 1.926324997572509 0.44493892615866115 1.938301738156816 0.6372378519036018 1.1421191377588846 3.8827108534637493 1.4351203359838527 4.191889341779257 1.5254148755427686 0.5634849660111259 3.242017382381115 0.584615321238739 1.7094305383578015 2.195722349526467 2.790201016045796 2.994503462542387 3.0882256029041866 3.4417790055948196 0.25302884441684387 3.764872234213345 2.6378829665258237 4.243326024846507 4.045388324977778 2.5529684285791396 2.584565869690699 1.304973261359801 0.9426337149745546 4.617164016865364 0.15672217046228457 2.0234214526171908 2.962631368473098 2.9571681855156187 3.6564027031876827 4.781262871849852 2.515574410790603 3.591717962004371 3.6061933964341066 4.520071227724551 2.2243120996765877 0.41296618554488107 1.7698548698906733 1.1195345608163543 2.41648220533529 0.2203366204097921 3.1767981826574183 2.5081103752951686 1.7440568618663082 2.551791908755781 2.735639541377077 2.0659754333940534 2.7353214315345444 0.6352836103365228 4.058769603145284 0.21366463515667336 3.804840315128292 4.019538235534772 4.671904026153655 4.845824961961845 4.139607749565725 1.617477529184671 2.5669901381863607 2.7350448643618215 3.2700523911145907 3.7505334805885244 0.06318874594761388 4.619656981981188 1.243521138612361 0.12296986407606898 2.9706278358329934 4.090170718248716 2.318179904768876 2.327065074399511 3.984687334288197 1.3708157483455774 2.2712751597619523 0.9062318578178467 0.7833139086116397 3.183256721791671 3.1423777627758427 4.591665521841687 4.715492616856322 0.5630854690488432 3.733534853432765 3.2864085100640645 2.9951750560463704 4.7285433255583795 3.628310794039317 1.7798244440472977 1.8082162472259462 3.298539318231612 0.5639541154972683 1.5248104484048037 0.7638029113283547 3.9789911120923325 2.8888944696279126 3.439022913546936 3.2880645217197 2.628660663440551 0.4039115892166748 2.379297943679247 1.2323676772479346 0.8161312230130732 2.4874012155629686 2.9510258304319654 0.23720213267468176 3.419024146368697 3.8895783784248628 1.1957331049896023 3.5636839243202068 1.4644464807174769 0.512489290253539 3.865538112046198 0.8784306903689582 0.3624721640592003 1.172661586997458]

[19 79 69 58 27 25 8 43 84 97 19 94 99 71 76 4 76 71 40 49 96 95 75 14 40 87 25 99 5 34 97 95 67 28 91 20 31 12 47 6 82 81 81 65 42 50 41 53 34 55 22 23 80 99 60 43 12 22 15 53 44 10 27 66 23 47 88 38 7 33 97 25 21 94 43 32 46 18 24 26 81 85 42 21 17 45 15 39 77 58 12 4 68 71 27 96 4 60 83 55 84 51 93 75 24 53 54 18 74 36 46 54 60 48 76 50 94 36 40 8 23 60 3 18 72 50 99 15 82 90 93 24 42 99 76 25 88 46 73 99]
